sat
(
  (define-fun N () String
    "a")
  (define-fun I () String
    "")
  (define-fun M () String
    "")
  (define-fun O () String
    "aa")
  (define-fun F () String
    "")
  (define-fun L () String
    "")
  (define-fun K () String
    "a")
  (define-fun H () String
    "")
  (define-fun R () String
    "")
)
